NAME: tsp20-47
TYPE: TSP
DIMENSION: 20
EDGE_WEIGHT_TYPE: EUC_2D
NODE_COORD_SECTION
0 41 40
1 21 82
2 60 99
3 14 46
4 27 64
5 72 27
6 13 41
7 84 26
8 22 68
9 56 4
10 7 42
11 64 22
12 88 100
13 46 79
14 93 81
15 75 38
16 50 75
17 4 86
18 14 60
19 71 54
EOF